c CNF file generated from BLIF2CNF script.
c Original BLIF file was comb/o64.blif
p cnf 652 1173
1 -3 0
3 -1  0
-3 2 0
-2 3  0
4 -6 0
6 -4  0
-6 5 0
-5 6  0
7 -9 0
9 -7  0
-9 8 0
-8 9  0
10 -12 0
12 -10  0
-12 11 0
-11 12  0
13 -15 0
15 -13  0
-15 14 0
-14 15  0
16 -18 0
18 -16  0
-18 17 0
-17 18  0
19 -21 0
21 -19  0
-21 20 0
-20 21  0
22 -24 0
24 -22  0
-24 23 0
-23 24  0
25 -27 0
27 -25  0
-27 26 0
-26 27  0
28 -30 0
30 -28  0
-30 29 0
-29 30  0
31 -33 0
33 -31  0
-33 32 0
-32 33  0
34 -36 0
36 -34  0
-36 35 0
-35 36  0
37 -39 0
39 -37  0
-39 38 0
-38 39  0
40 -42 0
42 -40  0
-42 41 0
-41 42  0
43 -45 0
45 -43  0
-45 44 0
-44 45  0
46 -48 0
48 -46  0
-48 47 0
-47 48  0
49 -51 0
51 -49  0
-51 50 0
-50 51  0
52 -54 0
54 -52  0
-54 53 0
-53 54  0
55 -57 0
57 -55  0
-57 56 0
-56 57  0
58 -60 0
60 -58  0
-60 59 0
-59 60  0
61 -63 0
63 -61  0
-63 62 0
-62 63  0
64 -66 0
66 -64  0
-66 65 0
-65 66  0
67 -69 0
69 -67  0
-69 68 0
-68 69  0
70 -72 0
72 -70  0
-72 71 0
-71 72  0
73 -75 0
75 -73  0
-75 74 0
-74 75  0
76 -78 0
78 -76  0
-78 77 0
-77 78  0
79 -81 0
81 -79  0
-81 80 0
-80 81  0
82 -84 0
84 -82  0
-84 83 0
-83 84  0
85 -87 0
87 -85  0
-87 86 0
-86 87  0
88 -90 0
90 -88  0
-90 89 0
-89 90  0
91 -93 0
93 -91  0
-93 92 0
-92 93  0
94 -96 0
96 -94  0
-96 95 0
-95 96  0
97 -99 0
99 -97  0
-99 98 0
-98 99  0
100 -102 0
102 -100  0
-102 101 0
-101 102  0
103 -105 0
105 -103  0
-105 104 0
-104 105  0
106 -108 0
108 -106  0
-108 107 0
-107 108  0
109 -111 0
111 -109  0
-111 110 0
-110 111  0
112 -114 0
114 -112  0
-114 113 0
-113 114  0
115 -117 0
117 -115  0
-117 116 0
-116 117  0
118 -120 0
120 -118  0
-120 119 0
-119 120  0
121 -123 0
123 -121  0
-123 122 0
-122 123  0
124 -126 0
126 -124  0
-126 125 0
-125 126  0
127 -129 0
129 -127  0
-129 128 0
-128 129  0
130 -132 0
132 -130  0
-132 131 0
-131 132  0
133 -135 0
135 -133  0
-135 134 0
-134 135  0
136 -138 0
138 -136  0
-138 137 0
-137 138  0
139 -141 0
141 -139  0
-141 140 0
-140 141  0
142 -144 0
144 -142  0
-144 143 0
-143 144  0
145 -147 0
147 -145  0
-147 146 0
-146 147  0
148 -150 0
150 -148  0
-150 149 0
-149 150  0
151 -153 0
153 -151  0
-153 152 0
-152 153  0
154 -156 0
156 -154  0
-156 155 0
-155 156  0
157 -159 0
159 -157  0
-159 158 0
-158 159  0
160 -162 0
162 -160  0
-162 161 0
-161 162  0
163 -165 0
165 -163  0
-165 164 0
-164 165  0
166 -168 0
168 -166  0
-168 167 0
-167 168  0
169 -171 0
171 -169  0
-171 170 0
-170 171  0
172 -174 0
174 -172  0
-174 173 0
-173 174  0
175 -177 0
177 -175  0
-177 176 0
-176 177  0
178 -180 0
180 -178  0
-180 179 0
-179 180  0
181 -183 0
183 -181  0
-183 182 0
-182 183  0
184 -186 0
186 -184  0
-186 185 0
-185 186  0
187 -189 0
189 -187  0
-189 188 0
-188 189  0
190 -192 0
192 -190  0
-192 191 0
-191 192  0
193 -195 0
195 -193  0
-195 194 0
-194 195  0
196 -198 0
198 -196  0
-198 197 0
-197 198  0
199 -201 0
201 -199  0
-201 200 0
-200 201  0
202 -204 0
204 -202  0
-204 203 0
-203 204  0
205 -207 0
207 -205  0
-207 206 0
-206 207  0
208 -210 0
210 -208  0
-210 209 0
-209 210  0
211 -213 0
213 -211  0
-213 212 0
-212 213  0
214 -216 0
216 -214  0
-216 215 0
-215 216  0
217 -219 0
219 -217  0
-219 218 0
-218 219  0
220 -222 0
222 -220  0
-222 221 0
-221 222  0
223 -225 0
225 -223  0
-225 224 0
-224 225  0
226 -228 0
228 -226  0
-228 227 0
-227 228  0
229 -231 0
231 -229  0
-231 230 0
-230 231  0
232 -234 0
234 -232  0
-234 233 0
-233 234  0
235 -237 0
237 -235  0
-237 236 0
-236 237  0
238 -240 0
240 -238  0
-240 239 0
-239 240  0
241 -243 0
243 -241  0
-243 242 0
-242 243  0
244 -246 0
246 -244  0
-246 245 0
-245 246  0
247 -249 0
249 -247  0
-249 248 0
-248 249  0
250 -252 0
252 -250  0
-252 251 0
-251 252  0
253 -255 0
255 -253  0
-255 254 0
-254 255  0
256 -258 0
258 -256  0
-258 257 0
-257 258  0
259 -261 0
261 -259  0
-261 260 0
-260 261  0
262 -264 0
264 -262  0
-264 263 0
-263 264  0
265 -267 0
267 -265  0
-267 266 0
-266 267  0
268 -270 0
270 -268  0
-270 269 0
-269 270  0
271 -273 0
273 -271  0
-273 272 0
-272 273  0
274 -276 0
276 -274  0
-276 275 0
-275 276  0
277 -279 0
279 -277  0
-279 278 0
-278 279  0
280 -282 0
282 -280  0
-282 281 0
-281 282  0
283 -285 0
285 -283  0
-285 284 0
-284 285  0
286 -288 0
288 -286  0
-288 287 0
-287 288  0
289 -291 0
291 -289  0
-291 290 0
-290 291  0
292 -294 0
294 -292  0
-294 293 0
-293 294  0
295 -297 0
297 -295  0
-297 296 0
-296 297  0
298 -300 0
300 -298  0
-300 299 0
-299 300  0
301 -303 0
303 -301  0
-303 302 0
-302 303  0
304 -306 0
306 -304  0
-306 305 0
-305 306  0
307 -309 0
309 -307  0
-309 308 0
-308 309  0
310 -312 0
312 -310  0
-312 311 0
-311 312  0
313 -315 0
315 -313  0
-315 314 0
-314 315  0
316 -318 0
318 -316  0
-318 317 0
-317 318  0
319 -321 0
321 -319  0
-321 320 0
-320 321  0
322 -324 0
324 -322  0
-324 323 0
-323 324  0
325 -327 0
327 -325  0
-327 326 0
-326 327  0
328 -330 0
330 -328  0
-330 329 0
-329 330  0
331 -333 0
333 -331  0
-333 332 0
-332 333  0
334 -336 0
336 -334  0
-336 335 0
-335 336  0
337 -339 0
339 -337  0
-339 338 0
-338 339  0
340 -342 0
342 -340  0
-342 341 0
-341 342  0
343 -345 0
345 -343  0
-345 344 0
-344 345  0
346 -348 0
348 -346  0
-348 347 0
-347 348  0
349 -351 0
351 -349  0
-351 350 0
-350 351  0
352 -354 0
354 -352  0
-354 353 0
-353 354  0
355 -357 0
357 -355  0
-357 356 0
-356 357  0
358 -360 0
360 -358  0
-360 359 0
-359 360  0
361 -363 0
363 -361  0
-363 362 0
-362 363  0
364 -366 0
366 -364  0
-366 365 0
-365 366  0
367 -369 0
369 -367  0
-369 368 0
-368 369  0
370 -372 0
372 -370  0
-372 371 0
-371 372  0
373 -375 0
375 -373  0
-375 374 0
-374 375  0
376 -378 0
378 -376  0
-378 377 0
-377 378  0
379 -381 0
381 -379  0
-381 380 0
-380 381  0
382 -384 0
384 -382  0
-384 383 0
-383 384  0
385 -387 0
387 -385  0
-387 386 0
-386 387  0
388 -390 0
390 -388  0
-390 389 0
-389 390  0
391 -393 0
393 -391  0
-393 392 0
-392 393  0
394 -398 0
398 -394  0
-398 397 0
395 -399 0
399 -395  0
-399 397 0
396 -400 0
400 -396  0
-400 397 0
-397 398 399 400  0
401 -405 0
405 -401  0
-405 404 0
402 -406 0
406 -402  0
-406 404 0
403 -407 0
407 -403  0
-407 404 0
-404 405 406 407  0
408 -412 0
412 -408  0
-412 411 0
409 -413 0
413 -409  0
-413 411 0
410 -414 0
414 -410  0
-414 411 0
-411 412 413 414  0
415 -419 0
419 -415  0
-419 418 0
416 -420 0
420 -416  0
-420 418 0
417 -421 0
421 -417  0
-421 418 0
-418 419 420 421  0
422 -426 0
426 -422  0
-426 425 0
423 -427 0
427 -423  0
-427 425 0
424 -428 0
428 -424  0
-428 425 0
-425 426 427 428  0
429 -432 0
432 -429  0
-432 431 0
430 -433 0
433 -430  0
-433 431 0
-431 432 433  0
411 -435 0
435 -411  0
-435 434 0
404 -436 0
436 -404  0
-436 434 0
418 -437 0
437 -418  0
-437 434 0
-434 435 436 437  0
397 -440 0
440 -397  0
-440 439 0
425 -441 0
441 -425  0
-441 439 0
438 -442 0
442 -438  0
-442 439 0
-439 440 441 442  0
443 -446 0
446 -443  0
-446 430 0
444 -447 0
447 -444  0
-447 430 0
445 -448 0
448 -445  0
-448 430 0
-430 446 447 448  0
101 -450 0
35 -450 0
450 -101 -35  0
-450 449 0
-449 450  0
257 -452 0
386 -452 0
452 -257 -386  0
-452 451 0
-451 452  0
260 -454 0
38 -454 0
454 -260 -38  0
-454 453 0
-453 454  0
92 -456 0
383 -456 0
456 -92 -383  0
-456 455 0
-455 456  0
95 -458 0
239 -458 0
458 -95 -239  0
-458 457 0
-457 458  0
116 -460 0
8 -460 0
460 -116 -8  0
-460 459 0
-459 460  0
269 -462 0
11 -462 0
462 -269 -11  0
-462 461 0
-461 462  0
272 -464 0
356 -464 0
464 -272 -356  0
-464 463 0
-463 464  0
104 -466 0
185 -466 0
466 -104 -185  0
-466 465 0
-465 466  0
107 -468 0
350 -468 0
468 -107 -350  0
-468 467 0
-467 468  0
125 -470 0
17 -470 0
470 -125 -17  0
-470 469 0
-469 470  0
287 -472 0
233 -472 0
472 -287 -233  0
-472 471 0
-471 472  0
290 -474 0
380 -474 0
474 -290 -380  0
-474 473 0
-473 474  0
164 -476 0
314 -476 0
476 -164 -314  0
-476 475 0
-475 476  0
122 -478 0
98 -478 0
478 -122 -98  0
-478 477 0
-477 478  0
140 -480 0
254 -480 0
480 -140 -254  0
-480 479 0
-479 480  0
302 -482 0
344 -482 0
482 -302 -344  0
-482 481 0
-481 482  0
305 -484 0
182 -484 0
484 -305 -182  0
-484 483 0
-483 484  0
83 -486 0
68 -486 0
486 -83 -68  0
-486 485 0
-485 486  0
131 -488 0
263 -488 0
488 -131 -263  0
-488 487 0
-487 488  0
434 -489 0
489 -434  0
-489 25 0
431 -490 0
490 -431  0
-490 25 0
439 -491 0
491 -439  0
-491 25 0
-25 489 490 491  0
14 -493 0
218 -493 0
493 -14 -218  0
-493 492 0
-492 493  0
494 -498 0
498 -494  0
-498 497 0
495 -499 0
499 -495  0
-499 497 0
496 -500 0
500 -496  0
-500 497 0
-497 498 499 500  0
501 -504 0
504 -501  0
-504 416 0
502 -505 0
505 -502  0
-505 416 0
503 -506 0
506 -503  0
-506 416 0
-416 504 505 506  0
507 -509 0
509 -507  0
-509 438 0
508 -510 0
510 -508  0
-510 438 0
497 -511 0
511 -497  0
-511 438 0
-438 509 510 511  0
62 -513 0
134 -513 0
513 -62 -134  0
-513 512 0
-512 513  0
65 -514 0
206 -514 0
514 -65 -206  0
-514 496 0
-496 514  0
473 -516 0
516 -473  0
-516 410 0
483 -517 0
517 -483  0
-517 410 0
515 -518 0
518 -515  0
-518 410 0
-410 516 517 518  0
479 -519 0
519 -479  0
-519 429 0
469 -520 0
520 -469  0
-520 429 0
-429 519 520  0
74 -522 0
113 -522 0
522 -74 -113  0
-522 521 0
-521 522  0
523 -525 0
525 -523  0
-525 508 0
521 -526 0
526 -521  0
-526 508 0
524 -527 0
527 -524  0
-527 508 0
-508 525 526 527  0
455 -528 0
528 -455  0
-528 417 0
485 -529 0
529 -485  0
-529 417 0
465 -530 0
530 -465  0
-530 417 0
-417 528 529 530  0
449 -532 0
532 -449  0
-532 444 0
459 -533 0
533 -459  0
-533 444 0
531 -534 0
534 -531  0
-534 444 0
-444 532 533 534  0
44 -535 0
152 -535 0
535 -44 -152  0
-535 523 0
-523 535  0
536 -539 0
539 -536  0
-539 507 0
537 -540 0
540 -537  0
-540 507 0
538 -541 0
541 -538  0
-541 507 0
-507 539 540 541  0
542 -544 0
544 -542  0
-544 415 0
543 -545 0
545 -543  0
-545 415 0
475 -546 0
546 -475  0
-546 415 0
-415 544 545 546  0
547 -550 0
550 -547  0
-550 443 0
548 -551 0
551 -548  0
-551 443 0
549 -552 0
552 -549  0
-552 443 0
-443 550 551 552  0
338 -553 0
392 -553 0
553 -338 -392  0
-553 515 0
-515 553  0
230 -555 0
215 -555 0
555 -230 -215  0
-555 554 0
-554 555  0
149 -557 0
284 -557 0
557 -149 -284  0
-557 556 0
-556 557  0
56 -558 0
191 -558 0
558 -56 -191  0
-558 538 0
-538 558  0
559 -562 0
562 -559  0
-562 422 0
560 -563 0
563 -560  0
-563 422 0
561 -564 0
564 -561  0
-564 422 0
-422 562 563 564  0
565 -568 0
568 -565  0
-568 445 0
566 -569 0
569 -566  0
-569 445 0
567 -570 0
570 -567  0
-570 445 0
-445 568 569 570  0
320 -571 0
359 -571 0
571 -320 -359  0
-571 502 0
-502 571  0
119 -573 0
173 -573 0
573 -119 -173  0
-573 572 0
-572 573  0
20 -575 0
176 -575 0
575 -20 -176  0
-575 574 0
-574 575  0
110 -576 0
161 -576 0
576 -110 -161  0
-576 536 0
-536 576  0
554 -578 0
578 -554  0
-578 423 0
572 -579 0
579 -572  0
-579 423 0
577 -580 0
580 -577  0
-580 423 0
-423 578 579 580  0
581 -584 0
584 -581  0
-584 402 0
582 -585 0
585 -582  0
-585 402 0
583 -586 0
586 -583  0
-586 402 0
-402 584 585 586  0
50 -587 0
308 -587 0
587 -50 -308  0
-587 566 0
-566 587  0
335 -589 0
311 -589 0
589 -335 -311  0
-589 588 0
-588 589  0
32 -591 0
188 -591 0
591 -32 -188  0
-591 590 0
-590 591  0
77 -592 0
221 -592 0
592 -77 -221  0
-592 494 0
-494 592  0
593 -595 0
595 -593  0
-595 395 0
457 -596 0
596 -457  0
-596 395 0
594 -597 0
597 -594  0
-597 395 0
-395 595 596 597  0
461 -598 0
598 -461  0
-598 401 0
451 -599 0
599 -451  0
-599 401 0
471 -600 0
600 -471  0
-600 401 0
-401 598 599 600  0
41 -601 0
326 -601 0
601 -41 -326  0
-601 565 0
-565 601  0
317 -603 0
329 -603 0
603 -317 -329  0
-603 602 0
-602 603  0
5 -605 0
203 -605 0
605 -5 -203  0
-605 604 0
-604 605  0
47 -606 0
179 -606 0
606 -47 -179  0
-606 495 0
-495 606  0
477 -607 0
607 -477  0
-607 424 0
487 -608 0
608 -487  0
-608 424 0
467 -609 0
609 -467  0
-609 424 0
-424 607 608 609  0
602 -610 0
610 -602  0
-610 403 0
481 -611 0
611 -481  0
-611 403 0
588 -612 0
612 -588  0
-612 403 0
-403 610 611 612  0
59 -613 0
293 -613 0
613 -59 -293  0
-613 549 0
-549 613  0
194 -614 0
341 -614 0
614 -194 -341  0
-614 567 0
-567 614  0
197 -616 0
389 -616 0
616 -197 -389  0
-616 615 0
-615 616  0
143 -617 0
347 -617 0
617 -143 -347  0
-617 543 0
-543 617  0
146 -618 0
281 -618 0
618 -146 -281  0
-618 561 0
-561 618  0
492 -619 0
619 -492  0
-619 396 0
604 -620 0
620 -604  0
-620 396 0
512 -621 0
621 -512  0
-621 396 0
-396 619 620 621  0
615 -624 0
624 -615  0
-624 409 0
622 -625 0
625 -622  0
-625 409 0
623 -626 0
626 -623  0
-626 409 0
-409 624 625 626  0
71 -627 0
278 -627 0
627 -71 -278  0
-627 547 0
-547 627  0
209 -628 0
353 -628 0
628 -209 -353  0
-628 582 0
-582 628  0
212 -629 0
296 -629 0
629 -212 -296  0
-629 622 0
-622 629  0
155 -630 0
299 -630 0
630 -155 -299  0
-630 542 0
-542 630  0
158 -631 0
236 -631 0
631 -158 -236  0
-631 559 0
-559 631  0
574 -632 0
632 -574  0
-632 394 0
556 -633 0
633 -556  0
-633 394 0
590 -634 0
634 -590  0
-634 394 0
-394 632 633 634  0
463 -636 0
636 -463  0
-636 408 0
635 -637 0
637 -635  0
-637 408 0
453 -638 0
638 -453  0
-638 408 0
-408 636 637 638  0
80 -639 0
362 -639 0
639 -80 -362  0
-639 548 0
-548 639  0
224 -640 0
365 -640 0
640 -224 -365  0
-640 581 0
-581 640  0
227 -641 0
368 -641 0
641 -227 -368  0
-641 635 0
-635 641  0
29 -642 0
371 -642 0
642 -29 -371  0
-642 501 0
-501 642  0
167 -643 0
248 -643 0
643 -167 -248  0
-643 560 0
-560 643  0
86 -644 0
251 -644 0
644 -86 -251  0
-644 593 0
-593 644  0
323 -645 0
170 -645 0
645 -323 -170  0
-645 537 0
-537 645  0
89 -646 0
23 -646 0
646 -89 -23  0
-646 531 0
-531 646  0
242 -647 0
374 -647 0
647 -242 -374  0
-647 583 0
-583 647  0
245 -648 0
377 -648 0
648 -245 -377  0
-648 623 0
-623 648  0
128 -649 0
332 -649 0
649 -128 -332  0
-649 503 0
-503 649  0
2 -650 0
200 -650 0
650 -2 -200  0
-650 577 0
-577 650  0
275 -651 0
266 -651 0
651 -275 -266  0
-651 594 0
-594 651  0
53 -652 0
137 -652 0
652 -53 -137  0
-652 524 0
-524 652  0
